          6 29432

  0  0 89 35  9  1
  0  0 85 84 12  0
 89 85  0 26 91 11
 35 84 26  0 35 82
  9 12 91 35  0 26
  1  0 11 82 26  0

  0 21 95 82 56 41
 21  0  6 25 10  4
 95  6  0 63  6 44
 82 25 63  0 40 75
 56 10  6 40  0 79
 41  4 44 75 79  0
